# 3d Uniaxial Tension

read_restart tmp.restart.50000

pair_style	eam/alloy 
pair_coeff	* *  ZrCu_lammps.eam Cu Zr 

compute cke all ke/atom
compute cpe all pe/atom
compute cstr all stress/atom pair
compute ccoord all coord/atom 3.0

thermo 100
thermo_style custom step temp ke pe etotal press pxx pyy pzz pxy pxz pyz ly lx lz 
thermo_modify	lost warn norm yes

reset_timestep	0

fix	INTEGRATE_FIX  all nve

dump OUT1 all custom 2500 dump_All_relajacion_*.lammpstrj x y z c_ccoord c_cpe c_cke vx vy vz id type c_cstr[1] c_cstr[2] c_cstr[3] c_cstr[4] c_cstr[5] c_cstr[6] 
restart	        50000 tmp.restart.relajacion.* 
thermo 100

fix DEFORM_FIX   all deform 1 z erate 0.001
timestep	0.002
run 50000

